32
443
260
411
125
402
142
370
163
217
304
286
308
382
369
77
255
228
8
218
117
333
280
108
442
194
308
476
327
239
77
215
416
496
2
162
158
134
70
423
201
5
483
254
158
384
375
418
59
276
465
414
335
420
355
195
283
162
430
257
128
228
278
461
473
137
129
158
267
213
381
232
136
348
342
137
180
281
160
235
140
376
157
379
338
252
48
352
496
167
221
427
288
139
380
149
20
75
447
191
